;; Automatically generated 9D closed-loop LQR CHC for eady
;; Note: Singleton initialization applied (all states start exactly at 0.0)
(set-logic HORN)

(declare-fun Inv (Real Real Real Real Real Real Real Real Real) Bool)

;; 1. Initialization
(assert
  (forall ((x0 Real) (x1 Real) (x2 Real) (x3 Real) (x4 Real) (x5 Real) (x6 Real) (x7 Real) (x8 Real))
    (=>
      (and
        (= x0 0.0)
        (= x1 0.0)
        (= x2 0.0)
        (= x3 0.0)
        (= x4 0.0)
        (= x5 0.0)
        (= x6 0.0)
        (= x7 0.0)
        (= x8 0.0)
      )
      (Inv x0 x1 x2 x3 x4 x5 x6 x7 x8)
    )
  )
)

;; 2. Transition (Closed-Loop Affine Step)
(assert
  (forall ((x0 Real) (x1 Real) (x2 Real) (x3 Real) (x4 Real) (x5 Real) (x6 Real) (x7 Real) (x8 Real)
           (x0_next Real) (x1_next Real) (x2_next Real) (x3_next Real) (x4_next Real) (x5_next Real) (x6_next Real) (x7_next Real) (x8_next Real))
    (=>
      (and
        (Inv x0 x1 x2 x3 x4 x5 x6 x7 x8)

        (= x0_next (+ (* 0.958374 x0) (+ (* -0.015112 x1) (+ (* -0.001031 x2) (+ (* -0.009607 x3) (+ (* -0.004649 x4) (+ (* -0.010436 x5) (+ (* -0.008133 x6) (+ (* -0.013843 x7) (* -0.015313 x8))))))))))
        (= x1_next (+ (* 0.004906 x0) (+ (* 0.961188 x1) (+ (* -0.015032 x2) (+ (* -0.002138 x3) (+ (* -0.009843 x4) (+ (* -0.006490 x5) (+ (* -0.011298 x6) (+ (* -0.011227 x7) (* -0.017522 x8))))))))))
        (= x2_next (+ (* -0.009095 x0) (+ (* 0.003929 x1) (+ (* 0.965538 x2) (+ (* -0.016139 x3) (+ (* -0.002374 x4) (+ (* -0.011684 x5) (+ (* -0.007351 x6) (+ (* -0.014391 x7) (* -0.014906 x8))))))))))
        (= x3_next (+ (* -0.001626 x0) (+ (* -0.010072 x1) (+ (* 0.004009 x2) (+ (* 0.968950 x3) (+ (* -0.016375 x4) (+ (* -0.004214 x5) (+ (* -0.012545 x6) (+ (* -0.010444 x7) (* -0.018070 x8))))))))))
        (= x4_next (+ (* -0.006820 x0) (+ (* -0.002603 x1) (+ (* -0.009992 x2) (+ (* 0.002902 x3) (+ (* 0.973197 x4) (+ (* -0.018215 x5) (+ (* -0.005076 x6) (+ (* -0.015639 x7) (* -0.014124 x8))))))))))
        (= x5_next (+ (* -0.002873 x0) (+ (* -0.007797 x1) (+ (* -0.002523 x2) (+ (* -0.011099 x3) (+ (* 0.002666 x4) (+ (* 0.975525 x5) (+ (* -0.019077 x6) (+ (* -0.008169 x7) (* -0.019318 x8))))))))))
        (= x6_next (+ (* -0.006038 x0) (+ (* -0.003850 x1) (+ (* -0.007717 x2) (+ (* -0.003630 x3) (+ (* -0.011335 x4) (+ (* 0.000826 x5) (+ (* 0.978311 x6) (+ (* -0.022170 x7) (* -0.011849 x8))))))))))
        (= x7_next (+ (* -0.003421 x0) (+ (* -0.007015 x1) (+ (* -0.003770 x2) (+ (* -0.008824 x3) (+ (* -0.003866 x4) (+ (* -0.013175 x5) (+ (* -0.000036 x6) (+ (* 0.978247 x7) (* -0.025849 x8))))))))))
        (= x8_next (+ (* -0.005631 x0) (+ (* -0.004398 x1) (+ (* -0.006935 x2) (+ (* -0.004877 x3) (+ (* -0.009060 x4) (+ (* -0.005706 x5) (+ (* -0.014037 x6) (+ (* -0.003129 x7) (* 0.976975 x8))))))))))
      )
      (Inv x0_next x1_next x2_next x3_next x4_next x5_next x6_next x7_next x8_next)
    )
  )
)

;; 3. Safety Query (Actuator Saturation > 12.0V or < -12.0V)
(assert
  (forall ((x0 Real) (x1 Real) (x2 Real) (x3 Real) (x4 Real) (x5 Real) (x6 Real) (x7 Real) (x8 Real))
    (=>
      (and
        (Inv x0 x1 x2 x3 x4 x5 x6 x7 x8)
        (or
          (> (+ (* -0.461456 x0) (+ (* -0.559174 x1) (+ (* -0.551165 x2) (+ (* -0.661855 x3) (+ (* -0.685441 x4) (+ (* -0.869478 x5) (+ (* -0.955636 x6) (+ (* -1.264974 x7) (* -1.632909 x8))))))))) 12.0)
          (< (+ (* -0.461456 x0) (+ (* -0.559174 x1) (+ (* -0.551165 x2) (+ (* -0.661855 x3) (+ (* -0.685441 x4) (+ (* -0.869478 x5) (+ (* -0.955636 x6) (+ (* -1.264974 x7) (* -1.632909 x8))))))))) -12.0)
        )
      )
      false
    )
  )
)

(check-sat)
(get-model)
